NAME :
TYPE : CCVRP
COMMENT :
DIMENSION : 484
CAPACITY : 1000
EDGE_WEIGHT_TYPE : EUC_2D_DBL
NODE_COORD_TYPE: TWOD_COORD
NODE_COORD_SECTION
1 0.0000 -21.0000
2 -1.0000 -20.0000
3 1.0000 -20.0000
4 -2.0000 -19.0000
5 0.0000 -19.0000
6 2.0000 -19.0000
7 -3.0000 -18.0000
8 -1.0000 -18.0000
9 1.0000 -18.0000
10 3.0000 -18.0000
11 -4.0000 -17.0000
12 -2.0000 -17.0000
13 0.0000 -17.0000
14 2.0000 -17.0000
15 4.0000 -17.0000
16 -5.0000 -16.0000
17 -3.0000 -16.0000
18 -1.0000 -16.0000
19 1.0000 -16.0000
20 3.0000 -16.0000
21 5.0000 -16.0000
22 -6.0000 -15.0000
23 -4.0000 -15.0000
24 -2.0000 -15.0000
25 0.0000 -15.0000
26 2.0000 -15.0000
27 4.0000 -15.0000
28 6.0000 -15.0000
29 -7.0000 -14.0000
30 -5.0000 -14.0000
31 -3.0000 -14.0000
32 -1.0000 -14.0000
33 1.0000 -14.0000
34 3.0000 -14.0000
35 5.0000 -14.0000
36 7.0000 -14.0000
37 -8.0000 -13.0000
38 -6.0000 -13.0000
39 -4.0000 -13.0000
40 -2.0000 -13.0000
41 0.0000 -13.0000
42 2.0000 -13.0000
43 4.0000 -13.0000
44 6.0000 -13.0000
45 8.0000 -13.0000
46 -9.0000 -12.0000
47 -7.0000 -12.0000
48 -5.0000 -12.0000
49 -3.0000 -12.0000
50 -1.0000 -12.0000
51 1.0000 -12.0000
52 3.0000 -12.0000
53 5.0000 -12.0000
54 7.0000 -12.0000
55 9.0000 -12.0000
56 -10.0000 -11.0000
57 -8.0000 -11.0000
58 -6.0000 -11.0000
59 -4.0000 -11.0000
60 -2.0000 -11.0000
61 0.0000 -11.0000
62 2.0000 -11.0000
63 4.0000 -11.0000
64 6.0000 -11.0000
65 8.0000 -11.0000
66 10.0000 -11.0000
67 -11.0000 -10.0000
68 -9.0000 -10.0000
69 -7.0000 -10.0000
70 -5.0000 -10.0000
71 -3.0000 -10.0000
72 -1.0000 -10.0000
73 1.0000 -10.0000
74 3.0000 -10.0000
75 5.0000 -10.0000
76 7.0000 -10.0000
77 9.0000 -10.0000
78 11.0000 -10.0000
79 -12.0000 -9.0000
80 -10.0000 -9.0000
81 -8.0000 -9.0000
82 -6.0000 -9.0000
83 -4.0000 -9.0000
84 -2.0000 -9.0000
85 0.0000 -9.0000
86 2.0000 -9.0000
87 4.0000 -9.0000
88 6.0000 -9.0000
89 8.0000 -9.0000
90 10.0000 -9.0000
91 12.0000 -9.0000
92 -13.0000 -8.0000
93 -11.0000 -8.0000
94 -9.0000 -8.0000
95 -7.0000 -8.0000
96 -5.0000 -8.0000
97 -3.0000 -8.0000
98 -1.0000 -8.0000
99 1.0000 -8.0000
100 3.0000 -8.0000
101 5.0000 -8.0000
102 7.0000 -8.0000
103 9.0000 -8.0000
104 11.0000 -8.0000
105 13.0000 -8.0000
106 -14.0000 -7.0000
107 -12.0000 -7.0000
108 -10.0000 -7.0000
109 -8.0000 -7.0000
110 -6.0000 -7.0000
111 -4.0000 -7.0000
112 -2.0000 -7.0000
113 0.0000 -7.0000
114 2.0000 -7.0000
115 4.0000 -7.0000
116 6.0000 -7.0000
117 8.0000 -7.0000
118 10.0000 -7.0000
119 12.0000 -7.0000
120 14.0000 -7.0000
121 -15.0000 -6.0000
122 -13.0000 -6.0000
123 -11.0000 -6.0000
124 -9.0000 -6.0000
125 -7.0000 -6.0000
126 -5.0000 -6.0000
127 -3.0000 -6.0000
128 -1.0000 -6.0000
129 1.0000 -6.0000
130 3.0000 -6.0000
131 5.0000 -6.0000
132 7.0000 -6.0000
133 9.0000 -6.0000
134 11.0000 -6.0000
135 13.0000 -6.0000
136 15.0000 -6.0000
137 -16.0000 -5.0000
138 -14.0000 -5.0000
139 -12.0000 -5.0000
140 -10.0000 -5.0000
141 -8.0000 -5.0000
142 -6.0000 -5.0000
143 -4.0000 -5.0000
144 -2.0000 -5.0000
145 0.0000 -5.0000
146 2.0000 -5.0000
147 4.0000 -5.0000
148 6.0000 -5.0000
149 8.0000 -5.0000
150 10.0000 -5.0000
151 12.0000 -5.0000
152 14.0000 -5.0000
153 16.0000 -5.0000
154 -17.0000 -4.0000
155 -15.0000 -4.0000
156 -13.0000 -4.0000
157 -11.0000 -4.0000
158 -9.0000 -4.0000
159 -7.0000 -4.0000
160 -5.0000 -4.0000
161 -3.0000 -4.0000
162 -1.0000 -4.0000
163 1.0000 -4.0000
164 3.0000 -4.0000
165 5.0000 -4.0000
166 7.0000 -4.0000
167 9.0000 -4.0000
168 11.0000 -4.0000
169 13.0000 -4.0000
170 15.0000 -4.0000
171 17.0000 -4.0000
172 -18.0000 -3.0000
173 -16.0000 -3.0000
174 -14.0000 -3.0000
175 -12.0000 -3.0000
176 -10.0000 -3.0000
177 -8.0000 -3.0000
178 -6.0000 -3.0000
179 -4.0000 -3.0000
180 -2.0000 -3.0000
181 0.0000 -3.0000
182 2.0000 -3.0000
183 4.0000 -3.0000
184 6.0000 -3.0000
185 8.0000 -3.0000
186 10.0000 -3.0000
187 12.0000 -3.0000
188 14.0000 -3.0000
189 16.0000 -3.0000
190 18.0000 -3.0000
191 -19.0000 -2.0000
192 -17.0000 -2.0000
193 -15.0000 -2.0000
194 -13.0000 -2.0000
195 -11.0000 -2.0000
196 -9.0000 -2.0000
197 -7.0000 -2.0000
198 -5.0000 -2.0000
199 -3.0000 -2.0000
200 -1.0000 -2.0000
201 1.0000 -2.0000
202 3.0000 -2.0000
203 5.0000 -2.0000
204 7.0000 -2.0000
205 9.0000 -2.0000
206 11.0000 -2.0000
207 13.0000 -2.0000
208 15.0000 -2.0000
209 17.0000 -2.0000
210 19.0000 -2.0000
211 -20.0000 -1.0000
212 -18.0000 -1.0000
213 -16.0000 -1.0000
214 -14.0000 -1.0000
215 -12.0000 -1.0000
216 -10.0000 -1.0000
217 -8.0000 -1.0000
218 -6.0000 -1.0000
219 -4.0000 -1.0000
220 -2.0000 -1.0000
221 0.0000 -1.0000
222 2.0000 -1.0000
223 4.0000 -1.0000
224 6.0000 -1.0000
225 8.0000 -1.0000
226 10.0000 -1.0000
227 12.0000 -1.0000
228 14.0000 -1.0000
229 16.0000 -1.0000
230 18.0000 -1.0000
231 20.0000 -1.0000
232 -21.0000 0.0000
233 -19.0000 0.0000
234 -17.0000 0.0000
235 -15.0000 0.0000
236 -13.0000 0.0000
237 -11.0000 0.0000
238 -9.0000 0.0000
239 -7.0000 0.0000
240 -5.0000 0.0000
241 -3.0000 0.0000
242 -1.0000 0.0000
243 1.0000 0.0000
244 3.0000 0.0000
245 5.0000 0.0000
246 7.0000 0.0000
247 9.0000 0.0000
248 11.0000 0.0000
249 13.0000 0.0000
250 15.0000 0.0000
251 17.0000 0.0000
252 19.0000 0.0000
253 21.0000 0.0000
254 -20.0000 1.0000
255 -18.0000 1.0000
256 -16.0000 1.0000
257 -14.0000 1.0000
258 -12.0000 1.0000
259 -10.0000 1.0000
260 -8.0000 1.0000
261 -6.0000 1.0000
262 -4.0000 1.0000
263 -2.0000 1.0000
264 0.0000 1.0000
265 2.0000 1.0000
266 4.0000 1.0000
267 6.0000 1.0000
268 8.0000 1.0000
269 10.0000 1.0000
270 12.0000 1.0000
271 14.0000 1.0000
272 16.0000 1.0000
273 18.0000 1.0000
274 20.0000 1.0000
275 -19.0000 2.0000
276 -17.0000 2.0000
277 -15.0000 2.0000
278 -13.0000 2.0000
279 -11.0000 2.0000
280 -9.0000 2.0000
281 -7.0000 2.0000
282 -5.0000 2.0000
283 -3.0000 2.0000
284 -1.0000 2.0000
285 1.0000 2.0000
286 3.0000 2.0000
287 5.0000 2.0000
288 7.0000 2.0000
289 9.0000 2.0000
290 11.0000 2.0000
291 13.0000 2.0000
292 15.0000 2.0000
293 17.0000 2.0000
294 19.0000 2.0000
295 -18.0000 3.0000
296 -16.0000 3.0000
297 -14.0000 3.0000
298 -12.0000 3.0000
299 -10.0000 3.0000
300 -8.0000 3.0000
301 -6.0000 3.0000
302 -4.0000 3.0000
303 -2.0000 3.0000
304 0.0000 3.0000
305 2.0000 3.0000
306 4.0000 3.0000
307 6.0000 3.0000
308 8.0000 3.0000
309 10.0000 3.0000
310 12.0000 3.0000
311 14.0000 3.0000
312 16.0000 3.0000
313 18.0000 3.0000
314 -17.0000 4.0000
315 -15.0000 4.0000
316 -13.0000 4.0000
317 -11.0000 4.0000
318 -9.0000 4.0000
319 -7.0000 4.0000
320 -5.0000 4.0000
321 -3.0000 4.0000
322 -1.0000 4.0000
323 1.0000 4.0000
324 3.0000 4.0000
325 5.0000 4.0000
326 7.0000 4.0000
327 9.0000 4.0000
328 11.0000 4.0000
329 13.0000 4.0000
330 15.0000 4.0000
331 17.0000 4.0000
332 -16.0000 5.0000
333 -14.0000 5.0000
334 -12.0000 5.0000
335 -10.0000 5.0000
336 -8.0000 5.0000
337 -6.0000 5.0000
338 -4.0000 5.0000
339 -2.0000 5.0000
340 0.0000 5.0000
341 2.0000 5.0000
342 4.0000 5.0000
343 6.0000 5.0000
344 8.0000 5.0000
345 10.0000 5.0000
346 12.0000 5.0000
347 14.0000 5.0000
348 16.0000 5.0000
349 -15.0000 6.0000
350 -13.0000 6.0000
351 -11.0000 6.0000
352 -9.0000 6.0000
353 -7.0000 6.0000
354 -5.0000 6.0000
355 -3.0000 6.0000
356 -1.0000 6.0000
357 1.0000 6.0000
358 3.0000 6.0000
359 5.0000 6.0000
360 7.0000 6.0000
361 9.0000 6.0000
362 11.0000 6.0000
363 13.0000 6.0000
364 15.0000 6.0000
365 -14.0000 7.0000
366 -12.0000 7.0000
367 -10.0000 7.0000
368 -8.0000 7.0000
369 -6.0000 7.0000
370 -4.0000 7.0000
371 -2.0000 7.0000
372 0.0000 7.0000
373 2.0000 7.0000
374 4.0000 7.0000
375 6.0000 7.0000
376 8.0000 7.0000
377 10.0000 7.0000
378 12.0000 7.0000
379 14.0000 7.0000
380 -13.0000 8.0000
381 -11.0000 8.0000
382 -9.0000 8.0000
383 -7.0000 8.0000
384 -5.0000 8.0000
385 -3.0000 8.0000
386 -1.0000 8.0000
387 1.0000 8.0000
388 3.0000 8.0000
389 5.0000 8.0000
390 7.0000 8.0000
391 9.0000 8.0000
392 11.0000 8.0000
393 13.0000 8.0000
394 -12.0000 9.0000
395 -10.0000 9.0000
396 -8.0000 9.0000
397 -6.0000 9.0000
398 -4.0000 9.0000
399 -2.0000 9.0000
400 0.0000 9.0000
401 2.0000 9.0000
402 4.0000 9.0000
403 6.0000 9.0000
404 8.0000 9.0000
405 10.0000 9.0000
406 12.0000 9.0000
407 -11.0000 10.0000
408 -9.0000 10.0000
409 -7.0000 10.0000
410 -5.0000 10.0000
411 -3.0000 10.0000
412 -1.0000 10.0000
413 1.0000 10.0000
414 3.0000 10.0000
415 5.0000 10.0000
416 7.0000 10.0000
417 9.0000 10.0000
418 11.0000 10.0000
419 -10.0000 11.0000
420 -8.0000 11.0000
421 -6.0000 11.0000
422 -4.0000 11.0000
423 -2.0000 11.0000
424 0.0000 11.0000
425 2.0000 11.0000
426 4.0000 11.0000
427 6.0000 11.0000
428 8.0000 11.0000
429 10.0000 11.0000
430 -9.0000 12.0000
431 -7.0000 12.0000
432 -5.0000 12.0000
433 -3.0000 12.0000
434 -1.0000 12.0000
435 1.0000 12.0000
436 3.0000 12.0000
437 5.0000 12.0000
438 7.0000 12.0000
439 9.0000 12.0000
440 -8.0000 13.0000
441 -6.0000 13.0000
442 -4.0000 13.0000
443 -2.0000 13.0000
444 0.0000 13.0000
445 2.0000 13.0000
446 4.0000 13.0000
447 6.0000 13.0000
448 8.0000 13.0000
449 -7.0000 14.0000
450 -5.0000 14.0000
451 -3.0000 14.0000
452 -1.0000 14.0000
453 1.0000 14.0000
454 3.0000 14.0000
455 5.0000 14.0000
456 7.0000 14.0000
457 -6.0000 15.0000
458 -4.0000 15.0000
459 -2.0000 15.0000
460 0.0000 15.0000
461 2.0000 15.0000
462 4.0000 15.0000
463 6.0000 15.0000
464 -5.0000 16.0000
465 -3.0000 16.0000
466 -1.0000 16.0000
467 1.0000 16.0000
468 3.0000 16.0000
469 5.0000 16.0000
470 -4.0000 17.0000
471 -2.0000 17.0000
472 0.0000 17.0000
473 2.0000 17.0000
474 4.0000 17.0000
475 -3.0000 18.0000
476 -1.0000 18.0000
477 1.0000 18.0000
478 3.0000 18.0000
479 -2.0000 19.0000
480 0.0000 19.0000
481 2.0000 19.0000
482 -1.0000 20.0000
483 1.0000 20.0000
484 0.0000 21.0000
DEMAND_SECTION
1 0
2 300
3 300
4 180
5 300
6 180
7 128
8 180
9 180
10 128
11 100
12 128
13 180
14 128
15 100
16 81
17 100
18 128
19 128
20 100
21 81
22 69
23 81
24 100
25 128
26 100
27 81
28 69
29 60
30 69
31 81
32 100
33 100
34 81
35 69
36 60
37 52
38 60
39 69
40 81
41 100
42 81
43 69
44 60
45 52
46 47
47 52
48 60
49 69
50 81
51 81
52 69
53 60
54 52
55 47
56 42
57 47
58 52
59 60
60 69
61 81
62 69
63 60
64 52
65 47
66 42
67 39
68 42
69 47
70 52
71 60
72 69
73 69
74 60
75 52
76 47
77 42
78 39
79 36
80 39
81 42
82 47
83 52
84 60
85 69
86 60
87 52
88 47
89 42
90 39
91 36
92 33
93 36
94 39
95 42
96 47
97 52
98 60
99 60
100 52
101 47
102 42
103 39
104 36
105 33
106 31
107 33
108 36
109 39
110 42
111 47
112 52
113 60
114 52
115 47
116 42
117 39
118 36
119 33
120 31
121 29
122 31
123 33
124 36
125 39
126 42
127 47
128 52
129 52
130 47
131 42
132 39
133 36
134 33
135 31
136 29
137 27
138 29
139 31
140 33
141 36
142 39
143 42
144 47
145 52
146 47
147 42
148 39
149 36
150 33
151 31
152 29
153 27
154 25
155 27
156 29
157 31
158 33
159 36
160 39
161 42
162 47
163 47
164 42
165 39
166 36
167 33
168 31
169 29
170 27
171 25
172 24
173 25
174 27
175 29
176 31
177 33
178 36
179 39
180 42
181 47
182 42
183 39
184 36
185 33
186 31
187 29
188 27
189 25
190 24
191 23
192 24
193 25
194 27
195 29
196 31
197 33
198 36
199 39
200 42
201 42
202 39
203 36
204 33
205 31
206 29
207 27
208 25
209 24
210 23
211 21
212 23
213 24
214 25
215 27
216 29
217 31
218 33
219 36
220 39
221 42
222 39
223 36
224 33
225 31
226 29
227 27
228 25
229 24
230 23
231 21
232 20
233 21
234 23
235 24
236 25
237 27
238 29
239 31
240 33
241 36
242 39
243 39
244 36
245 33
246 31
247 29
248 27
249 25
250 24
251 23
252 21
253 20
254 20
255 21
256 23
257 24
258 25
259 27
260 29
261 31
262 33
263 36
264 39
265 36
266 33
267 31
268 29
269 27
270 25
271 24
272 23
273 21
274 20
275 20
276 21
277 23
278 24
279 25
280 27
281 29
282 31
283 33
284 36
285 36
286 33
287 31
288 29
289 27
290 25
291 24
292 23
293 21
294 20
295 20
296 21
297 23
298 24
299 25
300 27
301 29
302 31
303 33
304 36
305 33
306 31
307 29
308 27
309 25
310 24
311 23
312 21
313 20
314 20
315 21
316 23
317 24
318 25
319 27
320 29
321 31
322 33
323 33
324 31
325 29
326 27
327 25
328 24
329 23
330 21
331 20
332 20
333 21
334 23
335 24
336 25
337 27
338 29
339 31
340 33
341 31
342 29
343 27
344 25
345 24
346 23
347 21
348 20
349 20
350 21
351 23
352 24
353 25
354 27
355 29
356 31
357 31
358 29
359 27
360 25
361 24
362 23
363 21
364 20
365 20
366 21
367 23
368 24
369 25
370 27
371 29
372 31
373 29
374 27
375 25
376 24
377 23
378 21
379 20
380 20
381 21
382 23
383 24
384 25
385 27
386 29
387 29
388 27
389 25
390 24
391 23
392 21
393 20
394 20
395 21
396 23
397 24
398 25
399 27
400 29
401 27
402 25
403 24
404 23
405 21
406 20
407 20
408 21
409 23
410 24
411 25
412 27
413 27
414 25
415 24
416 23
417 21
418 20
419 20
420 21
421 23
422 24
423 25
424 27
425 25
426 24
427 23
428 21
429 20
430 20
431 21
432 23
433 24
434 25
435 25
436 24
437 23
438 21
439 20
440 20
441 21
442 23
443 24
444 25
445 24
446 23
447 21
448 20
449 20
450 21
451 23
452 24
453 24
454 23
455 21
456 20
457 20
458 21
459 23
460 24
461 23
462 21
463 20
464 20
465 21
466 23
467 23
468 21
469 20
470 20
471 21
472 23
473 21
474 20
475 20
476 21
477 21
478 20
479 20
480 21
481 20
482 20
483 20
484 20
CLUSTER_SECTION
1 70
2 2
3 3
4 4
5 5
6 6
7 7
8 8
9 9
10 10
11 7
12 11
13 12
14 10
15 13
16 14
17 11
18 15
19 16
20 13
21 13
22 14
23 14
24 15
25 16
26 17
27 18
28 18
29 14
30 19
31 19
32 20
33 17
34 17
35 18
36 21
37 22
38 19
39 19
40 20
41 20
42 18
43 23
44 21
45 21
46 22
47 22
48 24
49 24
50 25
51 26
52 23
53 21
54 21
55 27
56 22
57 22
58 22
59 24
60 25
61 25
62 23
63 23
64 28
65 27
66 27
67 29
68 29
69 24
70 24
71 30
72 26
73 26
74 26
75 28
76 27
77 27
78 27
79 29
80 29
81 31
82 31
83 30
84 30
85 32
86 32
87 28
88 28
89 28
90 1
91 1
92 29
93 29
94 29
95 31
96 30
97 30
98 32
99 32
100 33
101 28
102 34
103 34
104 1
105 1
106 35
107 35
108 31
109 31
110 31
111 36
112 36
113 37
114 33
115 33
116 34
117 34
118 1
119 1
120 38
121 35
122 35
123 35
124 31
125 39
126 36
127 36
128 37
129 33
130 33
131 33
132 34
133 34
134 1
135 1
136 38
137 35
138 35
139 35
140 39
141 39
142 36
143 36
144 37
145 37
146 37
147 40
148 34
149 41
150 38
151 38
152 38
153 38
154 42
155 35
156 35
157 43
158 39
159 39
160 39
161 44
162 44
163 40
164 40
165 40
166 41
167 41
168 38
169 38
170 38
171 38
172 42
173 42
174 42
175 43
176 43
177 39
178 39
179 44
180 44
181 45
182 40
183 40
184 40
185 41
186 41
187 41
188 46
189 46
190 47
191 42
192 42
193 42
194 42
195 43
196 43
197 43
198 44
199 44
200 44
201 45
202 45
203 41
204 41
205 41
206 46
207 46
208 46
209 46
210 47
211 42
212 42
213 42
214 42
215 43
216 43
217 43
218 48
219 48
220 45
221 45
222 45
223 49
224 49
225 50
226 50
227 46
228 46
229 46
230 47
231 47
232 51
233 51
234 51
235 51
236 43
237 52
238 48
239 48
240 48
241 48
242 45
243 49
244 49
245 49
246 50
247 50
248 50
249 46
250 46
251 47
252 47
253 47
254 51
255 51
256 51
257 52
258 52
259 52
260 48
261 48
262 48
263 53
264 53
265 49
266 49
267 49
268 50
269 50
270 50
271 47
272 47
273 47
274 47
275 51
276 51
277 51
278 52
279 52
280 52
281 52
282 53
283 53
284 53
285 54
286 54
287 55
288 50
289 50
290 56
291 56
292 47
293 47
294 57
295 51
296 51
297 52
298 52
299 52
300 58
301 58
302 53
303 53
304 53
305 54
306 54
307 55
308 55
309 56
310 56
311 56
312 57
313 57
314 51
315 59
316 59
317 58
318 58
319 58
320 58
321 60
322 54
323 54
324 54
325 55
326 55
327 55
328 56
329 56
330 56
331 57
332 59
333 59
334 59
335 58
336 58
337 58
338 60
339 60
340 54
341 54
342 55
343 55
344 55
345 56
346 56
347 56
348 57
349 59
350 59
351 59
352 58
353 58
354 60
355 60
356 60
357 60
358 55
359 61
360 61
361 56
362 57
363 57
364 57
365 59
366 59
367 59
368 62
369 60
370 60
371 60
372 63
373 61
374 61
375 61
376 61
377 57
378 57
379 57
380 59
381 59
382 62
383 62
384 62
385 63
386 63
387 63
388 61
389 61
390 61
391 64
392 57
393 57
394 59
395 62
396 62
397 62
398 62
399 63
400 63
401 63
402 61
403 61
404 64
405 64
406 57
407 62
408 62
409 62
410 62
411 63
412 63
413 63
414 65
415 64
416 64
417 64
418 64
419 62
420 66
421 66
422 66
423 67
424 65
425 65
426 64
427 64
428 64
429 64
430 66
431 66
432 66
433 66
434 65
435 65
436 65
437 65
438 64
439 64
440 66
441 66
442 66
443 67
444 65
445 65
446 65
447 65
448 68
449 66
450 66
451 67
452 67
453 65
454 67
455 68
456 68
457 66
458 67
459 67
460 67
461 67
462 68
463 68
464 67
465 67
466 67
467 67
468 68
469 68
470 69
471 69
472 68
473 68
474 68
475 69
476 69
477 68
478 68
479 69
480 69
481 68
482 69
483 68
484 69
DEPOT_SECTION
1
-1
EOF
